30	100	100	100
27	10	47
31	8	24
19	2	10
24	30	22
46	16	12
39	11	47
20	19	4
37	1	38
38	35	1
6	40	18
44	12	21
7	38	21
11	8	26
34	33	45
30	26	32
16	42	49
2	39	26
5	2	46
45	30	14
45	20	36
18	12	26
49	43	7
20	43	28
32	5	8
7	23	36
46	6	31
31	45	20
48	39	17
24	29	1
35	35	41
